188
500
350	1
349	1
348	2
346	1
345	1
339	1
338	1
337	2
335	2
333	1
332	3
328	2
327	2
326	2
325	1
324	3
323	2
322	2
320	1
319	3
318	1
317	3
316	1
314	2
312	3
310	2
309	3
306	2
301	3
299	2
298	1
297	2
293	1
290	2
289	2
288	1
287	1
286	1
285	1
284	2
283	2
281	1
279	1
276	1
275	3
274	1
273	2
272	2
266	2
264	1
262	2
261	1
260	1
259	4
257	1
254	1
252	2
251	1
250	2
249	1
248	2
244	1
243	1
242	1
241	3
240	2
238	1
237	1
236	1
235	1
233	1
231	1
230	2
229	1
228	3
227	1
226	3
225	1
223	1
222	1
221	2
219	3
217	3
216	2
215	1
214	1
211	1
209	1
208	2
205	2
204	1
203	2
202	1
201	1
198	1
197	2
196	3
195	1
194	3
193	2
192	2
189	1
188	1
187	1
185	1
184	1
183	1
182	1
179	1
174	2
172	3
169	2
168	1
167	1
166	2
165	1
164	1
163	1
162	1
161	1
159	2
157	2
155	2
154	1
153	2
152	2
150	1
147	1
146	1
145	1
144	1
143	1
140	1
139	2
136	1
133	1
132	3
127	1
125	5
124	1
123	2
121	2
119	2
117	2
115	1
114	1
112	1
111	3
110	1
108	1
107	1
106	1
104	1
103	2
100	2
98	2
97	1
96	1
95	3
94	1
93	1
92	1
91	1
90	1
89	2
86	1
84	1
83	1
82	4
81	4
80	3
79	1
78	1
76	4
75	1
71	1
70	1
68	1
67	2
65	2
64	1
61	2
58	1
57	1
53	1
52	1
51	2
50	2
